\ This file has been generated by DOcplex
\ ENCODING=ISO-8859-1
\Problem name: random_problem.lp

Minimize
 obj: - 0.559509725385 x0 - 0.279754862693 x1 - 0.139877431346 x2
      + 1.603044709100 x3 + 0.801522354550 x4 + 0.400761177275 x5 + [
      0.280506949416 x0^2 + 0.280506949416 x0*x1 + 0.140253474708 x0*x2
      + 0.294911800725 x0*x3 + 0.147455900363 x0*x4 + 0.073727950181 x0*x5
      + 0.070126737354 x1^2 + 0.070126737354 x1*x2 + 0.147455900363 x1*x3
      + 0.073727950181 x1*x4 + 0.036863975091 x1*x5 + 0.017531684338 x2^2
      + 0.073727950181 x2*x3 + 0.036863975091 x2*x4 + 0.018431987545 x2*x5
      + 0.498306649810 x3^2 + 0.498306649810 x3*x4 + 0.249153324905 x3*x5
      + 0.124576662453 x4^2 + 0.124576662453 x4*x5 + 0.031144165613 x5^2 ]/2
Subject To
 c0: 4 x0 + 2 x1 + x2 + 4 x3 + 2 x4 + x5 = 7

Bounds
 0 <= x0 <= 1
 0 <= x1 <= 1
 0 <= x2 <= 1
 0 <= x3 <= 1
 0 <= x4 <= 1
 0 <= x5 <= 1

Binaries
 x0 x1 x2 x3 x4 x5
End
